25 40
1 2 3
1 6 5
2 3 3
2 7 4
3 4 3
3 8 4
4 5 5
4 9 3
5 10 5
6 7 4
6 11 2
7 8 3
7 12 4
8 9 5
8 13 5
9 10 4
9 14 3
10 15 2
11 12 4
11 16 3
12 13 4
12 17 3
13 14 5
13 18 2
14 15 1
14 19 4
15 20 3
16 17 5
16 21 3
17 18 2
17 22 1
18 19 3
18 23 4
19 20 1
19 24 1
20 25 5
21 22 2
22 23 4
23 24 4
24 25 4
